NAME : n60w80.003.656.tour
COMMENT : Length = 656
COMMENT : Found by LKH [Keld Helsgaun] Tue Nov  7 19:35:19 2017
TYPE : TOUR
DIMENSION : 61
TOUR_SECTION
1
42
48
47
41
31
8
15
20
39
53
33
59
11
9
28
44
18
26
34
51
3
52
6
14
38
23
57
60
45
12
13
4
36
56
35
5
27
30
50
19
2
21
25
22
24
58
55
49
29
32
37
40
10
46
7
43
54
61
17
16
-1
EOF
